NAME : X_30_seed_123_id_7
TYPE : CVRP
DIMENSION : 237
EDGE_WEIGHT_TYPE : EUC_2D
CAPACITY : 18
NODE_COORD_SECTION
1	0	0
2	256	402
3	317	75
4	224	281
5	871	652
6	596	57
7	495	128
8	175	971
9	379	689
10	991	106
11	272	239
12	600	874
13	226	622
14	370	164
15	639	665
16	331	679
17	268	339
18	942	40
19	733	944
20	376	877
21	924	62
22	31	672
23	389	78
24	643	862
25	562	654
26	480	302
27	339	608
28	657	806
29	73	642
30	225	24
31	987	180
32	47	762
33	378	212
34	270	259
35	666	611
36	221	394
37	107	920
38	498	639
39	441	157
40	34	475
41	477	12
42	116	683
43	536	5
44	607	585
45	354	742
46	690	659
47	143	183
48	966	502
49	450	167
50	949	731
51	927	635
52	109	679
53	899	358
54	782	812
55	722	196
56	349	494
57	363	515
58	942	798
59	219	690
60	150	110
61	28	733
62	62	170
63	633	433
64	23	393
65	367	765
66	622	413
67	470	422
68	443	340
69	381	312
70	0	999
71	585	28
72	158	221
73	102	202
74	810	433
75	21	497
76	634	920
77	664	447
78	243	792
79	610	817
80	994	877
81	162	174
82	171	592
83	437	584
84	266	358
85	779	535
86	666	21
87	133	580
88	863	828
89	56	178
90	904	542
91	463	124
92	932	850
93	151	907
94	616	522
95	620	472
96	278	374
97	109	373
98	673	526
99	56	755
100	938	751
101	642	845
102	403	504
103	623	952
104	508	304
105	665	683
106	164	122
107	323	999
108	954	877
109	947	562
110	621	821
111	354	884
112	824	790
113	46	472
114	675	460
115	248	562
116	731	176
117	201	376
118	946	460
119	619	834
120	402	309
121	593	234
122	625	677
123	237	826
124	504	659
125	140	1
126	508	139
127	182	582
128	561	506
129	641	212
130	227	549
131	63	757
132	874	264
133	495	474
134	970	600
135	794	986
136	132	464
137	919	129
138	806	474
139	338	878
140	724	818
141	518	269
142	884	972
143	645	58
144	285	229
145	78	215
146	202	474
147	607	224
148	543	755
149	267	125
150	678	660
151	504	152
152	887	214
153	221	913
154	182	985
155	211	296
156	610	430
157	652	297
158	642	118
159	116	416
160	361	745
161	555	1
162	277	488
163	579	167
164	358	348
165	477	622
166	781	961
167	271	587
168	56	744
169	38	490
170	805	109
171	123	30
172	108	744
173	863	757
174	32	114
175	894	589
176	139	620
177	81	34
178	136	665
179	779	330
180	196	391
181	224	488
182	972	456
183	297	419
184	759	840
185	570	621
186	153	943
187	170	374
188	190	851
189	731	504
190	727	384
191	821	728
192	697	749
193	650	580
194	333	337
195	852	437
196	444	484
197	751	109
198	304	182
199	318	452
200	973	765
201	34	200
202	394	643
203	839	562
204	100	191
205	731	373
206	77	172
207	321	924
208	723	869
209	876	645
210	523	911
211	685	513
212	295	4
213	430	915
214	702	523
215	751	507
216	399	797
217	19	340
218	69	392
219	898	915
220	751	573
221	992	548
222	505	507
223	638	696
224	912	751
225	377	744
226	240	14
227	18	716
228	689	534
229	87	279
230	26	534
231	331	394
232	327	23
233	765	872
234	777	983
235	74	288
236	890	604
237	241	140
DEMAND_SECTION
1	0
2	1
3	1
4	1
5	1
6	1
7	1
8	1
9	1
10	1
11	1
12	1
13	1
14	1
15	1
16	1
17	1
18	1
19	1
20	1
21	1
22	1
23	1
24	1
25	1
26	1
27	1
28	1
29	1
30	1
31	1
32	1
33	1
34	1
35	1
36	1
37	1
38	1
39	1
40	1
41	1
42	1
43	1
44	1
45	1
46	1
47	1
48	1
49	1
50	1
51	1
52	1
53	1
54	1
55	1
56	1
57	1
58	1
59	1
60	1
61	1
62	1
63	1
64	1
65	1
66	1
67	1
68	1
69	1
70	1
71	1
72	1
73	1
74	1
75	1
76	1
77	1
78	1
79	1
80	1
81	1
82	1
83	1
84	1
85	1
86	1
87	1
88	1
89	1
90	1
91	1
92	1
93	1
94	1
95	1
96	1
97	1
98	1
99	1
100	1
101	1
102	1
103	1
104	1
105	1
106	1
107	1
108	1
109	1
110	1
111	1
112	1
113	1
114	1
115	1
116	1
117	1
118	1
119	1
120	1
121	1
122	1
123	1
124	1
125	1
126	1
127	1
128	1
129	1
130	1
131	1
132	1
133	1
134	1
135	1
136	1
137	1
138	1
139	1
140	1
141	1
142	1
143	1
144	1
145	1
146	1
147	1
148	1
149	1
150	1
151	1
152	1
153	1
154	1
155	1
156	1
157	1
158	1
159	1
160	1
161	1
162	1
163	1
164	1
165	1
166	1
167	1
168	1
169	1
170	1
171	1
172	1
173	1
174	1
175	1
176	1
177	1
178	1
179	1
180	1
181	1
182	1
183	1
184	1
185	1
186	1
187	1
188	1
189	1
190	1
191	1
192	1
193	1
194	1
195	1
196	1
197	1
198	1
199	1
200	1
201	1
202	1
203	1
204	1
205	1
206	1
207	1
208	1
209	1
210	1
211	1
212	1
213	1
214	1
215	1
216	1
217	1
218	1
219	1
220	1
221	1
222	1
223	1
224	1
225	1
226	1
227	1
228	1
229	1
230	1
231	1
232	1
233	1
234	1
235	1
236	1
237	1
DEPOT_SECTION
1
-1
EOF
